Problem:    
Rows:       105
Columns:    45 (34 integer, 34 binary)
Non-zeros:  302
Status:     INTEGER OPTIMAL
Objective:  value = 12.86118 (MINimum)

   No.   Row name        Activity     Lower bound   Upper bound
------ ------------    ------------- ------------- -------------
     1 r.5                   2012.86             0               
     2 r.6                  -1987.14       -1999.1               
     3 r.7                   12.8612             0               
     4 r.8                   10.5384      -1998.83               
     5 r.9                   2012.86             0               
     6 r.10                 -1992.85       -1997.6               
     7 r.11                  12.8612             0               
     8 r.12                  5.54108      -1997.57               
     9 r.13                  12.8612             0               
    10 r.14                  4.75478      -1998.51               
    11 r.15                  2012.86             0               
    12 r.16                 -1987.14      -1997.68               
    13 r.17                  2012.86             0               
    14 r.18                 -1988.04      -1995.19               
    15 r.19                  12.8612             0               
    16 r.20                  9.36638      -1996.17               
    17 r.21                  2012.86             0               
    18 r.22                 -1999.77      -1999.77               
    19 r.23                  12.8612             0               
    20 r.24                    0.226      -1998.83               
    21 r.25                        1             1             = 
    22 r.26                        1             1             = 
    23 r.27                        1             1             = 
    24 r.28                        1             1             = 
    25 r.29                        1             1             = 
    26 r.30                  1994.29        2.3975               
    27 r.31                 -1994.29       -1999.1               
    28 r.32                     1995        2.4274               
    29 r.33                    -1995      -1998.83               
    30 r.34                  1991.89        1.4905               
    31 r.35                 -1991.89       -1999.1               
    32 r.36                   2.3228        2.3228               
    33 r.37                  -2.3228      -1998.83               
    34 r.38                   1999.1        4.8073               
    35 r.39                  -1999.1       -1999.1               
    36 r.40                  1998.83        3.8253               
    37 r.41                 -1998.83      -1998.83               
    38 r.42                 -1987.36      -1994.91               
    39 r.43                  10.3124      -1988.52               
    40 r.44                 -1987.36      -1994.91               
    41 r.45                  10.3124      -1988.52               
    42 r.46                   5.7089        0.9016               
    43 r.47                  -5.7089       -1997.6               
    44 r.48                   4.9973         1.172               
    45 r.49                  -4.9973      -1997.57               
    46 r.50                   1997.6        1.4905               
    47 r.51                  -1997.6       -1997.6               
    48 r.52                   7.3201        2.3228               
    49 r.53                  -7.3201      -1997.57               
    50 r.54                   4.8073        4.8073               
    51 r.55                  -4.8073       -1997.6               
    52 r.56                   3.8253        3.8253               
    53 r.57                  -3.8253      -1997.57               
    54 r.58                 -1993.07      -1993.41               
    55 r.59                  5.31508      -1987.26               
    56 r.60                 -1993.07      -1993.41               
    57 r.61                  5.31508      -1987.26               
    58 r.62                   8.1064        0.9016               
    59 r.63                  -8.1064      -1998.51               
    60 r.64                  1997.68         1.172               
    61 r.65                 -1997.68      -1997.68               
    62 r.66                   2.3975        2.3975               
    63 r.67                  -2.3975      -1998.51               
    64 r.68                  1992.68        2.4274               
    65 r.69                 -1992.68      -1997.68               
    66 r.70                   7.2048        4.8073               
    67 r.71                  -7.2048      -1998.51               
    68 r.72                  1996.51        3.8253               
    69 r.73                 -1996.51      -1997.68               
    70 r.74                  4.52878      -1994.32               
    71 r.75                 -1987.36      -1987.36               
    72 r.76                  4.52878      -1994.32               
    73 r.77                 -1987.36      -1987.36               
    74 r.78                   0.9016        0.9016               
    75 r.79                  -0.9016      -1995.19               
    76 r.80                    1.172         1.172               
    77 r.81                   -1.172      -1996.17               
    78 r.82                  1995.19        2.3975               
    79 r.83                 -1995.19      -1995.19               
    80 r.84                  1996.17        2.4274               
    81 r.85                 -1996.17      -1996.17               
    82 r.86                   1992.8        1.4905               
    83 r.87                  -1992.8      -1995.19               
    84 r.88                   3.4948        2.3228               
    85 r.89                  -3.4948      -1996.17               
    86 r.90                 -1988.27         -1991               
    87 r.91                  9.14038      -1985.86               
    88 r.92                 -1988.27         -1991               
    89 r.93                  9.14038      -1985.86               
    90 r.94                 -1987.36      -1994.91               
    91 r.95                  10.3124      -1988.52               
    92 r.96                 -1987.36      -1994.91               
    93 r.97                  10.3124      -1988.52               
    94 r.98                 -1993.07      -1993.41               
    95 r.99                  5.31508      -1987.26               
    96 r.100                -1993.07      -1993.41               
    97 r.101                 5.31508      -1987.26               
    98 r.102                 4.52878      -1994.32               
    99 r.103                -1987.36      -1987.36               
   100 r.104                 4.52878      -1994.32               
   101 r.105                -1987.36      -1987.36               
   102 r.106                -1988.27         -1991               
   103 r.107                 9.14038      -1985.86               
   104 r.108                -1988.27         -1991               
   105 r.109                 9.14038      -1985.86               

   No. Column name       Activity     Lower bound   Upper bound
------ ------------    ------------- ------------- -------------
     1 tt                    12.8612             0               
     2 s_1_1        *              1             0             1 
     3 t_1_1                       0             0               
     4 s_2_1        *              0             0             1 
     5 t_2_1                  2.3228             0               
     6 s_1_2        *              1             0             1 
     7 t_1_2                  5.7089             0               
     8 s_2_2        *              0             0             1 
     9 t_2_2                  7.3201             0               
    10 s_1_3        *              0             0             1 
    11 t_1_3                  8.1064             0               
    12 s_2_3        *              1             0             1 
    13 t_2_3                       0             0               
    14 s_1_4        *              1             0             1 
    15 t_1_4                  0.9016             0               
    16 s_2_4        *              0             0             1 
    17 t_2_4                  3.4948             0               
    18 s_1_5        *              1             0             1 
    19 t_1_5                 12.6352             0               
    20 s_2_5        *              0             0             1 
    21 t_2_5                 12.6352             0               
    22 u_1_1_2      *              1             0             1 
    23 u_2_1_2      *              1             0             1 
    24 u_1_1_3      *              1             0             1 
    25 u_2_1_3      *              0             0             1 
    26 u_1_1_4      *              1             0             1 
    27 u_2_1_4      *              1             0             1 
    28 u_1_2_1      *              0             0             1 
    29 u_2_2_1      *              0             0             1 
    30 u_1_2_3      *              1             0             1 
    31 u_2_2_3      *              0             0             1 
    32 u_1_2_4      *              0             0             1 
    33 u_2_2_4      *              0             0             1 
    34 u_1_3_1      *              0             0             1 
    35 u_2_3_1      *              1             0             1 
    36 u_1_3_2      *              0             0             1 
    37 u_2_3_2      *              1             0             1 
    38 u_1_3_4      *              0             0             1 
    39 u_2_3_4      *              1             0             1 
    40 u_1_4_1      *              0             0             1 
    41 u_2_4_1      *              0             0             1 
    42 u_1_4_2      *              1             0             1 
    43 u_2_4_2      *              1             0             1 
    44 u_1_4_3      *              1             0             1 
    45 u_2_4_3      *              0             0             1 

Integer feasibility conditions:

KKT.PE: max.abs.err = 0.00e+00 on row 0
        max.rel.err = 0.00e+00 on row 0
        High quality

KKT.PB: max.abs.err = 8.44e-14 on row 32
        max.rel.err = 2.54e-14 on row 32
        High quality

End of output
